c Reduced graph for GEOM110b generated by Cyril Grelier
p edge 102 1197
e 1 2
e 1 3
e 1 4
e 1 5
e 1 6
e 1 7
e 1 8
e 1 9
e 1 10
e 1 11
e 1 12
e 1 15
e 1 16
e 1 17
e 1 18
e 1 38
e 1 39
e 1 40
e 1 41
e 1 42
e 1 43
e 1 44
e 1 45
e 1 46
e 1 47
e 1 49
e 1 50
e 1 53
e 1 54
e 1 69
e 1 70
e 1 71
e 1 72
e 1 73
e 1 74
e 1 76
e 1 78
e 1 83
e 1 84
e 2 3
e 2 4
e 2 5
e 2 6
e 2 7
e 2 8
e 2 9
e 2 11
e 2 12
e 2 13
e 2 15
e 2 16
e 2 18
e 2 23
e 2 38
e 2 40
e 2 41
e 2 42
e 2 43
e 2 45
e 2 69
e 2 70
e 2 71
e 2 72
e 2 73
e 2 74
e 2 75
e 2 76
e 2 78
e 2 80
e 2 83
e 2 84
e 2 86
e 2 88
e 2 90
e 3 4
e 3 5
e 3 6
e 3 7
e 3 8
e 3 9
e 3 11
e 3 14
e 3 15
e 3 26
e 3 37
e 3 38
e 3 39
e 3 41
e 3 42
e 3 56
e 3 70
e 3 71
e 3 72
e 3 73
e 3 74
e 3 75
e 3 77
e 3 79
e 3 80
e 3 81
e 3 82
e 3 85
e 3 86
e 3 87
e 3 89
e 4 5
e 4 6
e 4 7
e 4 8
e 4 9
e 4 10
e 4 11
e 4 12
e 4 15
e 4 17
e 4 37
e 4 38
e 4 39
e 4 40
e 4 41
e 4 42
e 4 46
e 4 69
e 4 70
e 4 71
e 4 72
e 4 73
e 4 74
e 4 75
e 4 76
e 4 77
e 4 78
e 4 80
e 4 82
e 4 86
e 5 6
e 5 7
e 5 11
e 5 13
e 5 15
e 5 24
e 5 29
e 5 38
e 5 40
e 5 41
e 5 42
e 5 52
e 5 61
e 5 71
e 5 72
e 5 73
e 5 75
e 5 76
e 5 78
e 5 80
e 5 82
e 5 84
e 5 86
e 5 88
e 5 89
e 5 91
e 5 97
e 5 99
e 6 7
e 6 8
e 6 9
e 6 11
e 6 12
e 6 13
e 6 15
e 6 37
e 6 38
e 6 40
e 6 41
e 6 42
e 6 69
e 6 70
e 6 71
e 6 72
e 6 73
e 6 74
e 6 75
e 6 76
e 6 77
e 6 78
e 6 80
e 6 82
e 6 85
e 6 86
e 6 89
e 7 8
e 7 9
e 7 11
e 7 12
e 7 13
e 7 15
e 7 37
e 7 38
e 7 40
e 7 41
e 7 42
e 7 69
e 7 70
e 7 71
e 7 72
e 7 73
e 7 74
e 7 75
e 7 76
e 7 77
e 7 78
e 7 80
e 7 82
e 7 85
e 7 86
e 7 89
e 8 9
e 8 11
e 8 14
e 8 15
e 8 17
e 8 19
e 8 27
e 8 37
e 8 39
e 8 41
e 8 42
e 8 46
e 8 48
e 8 51
e 8 69
e 8 70
e 8 72
e 8 73
e 8 74
e 8 77
e 8 79
e 8 81
e 8 82
e 8 86
e 8 87
e 9 10
e 9 11
e 9 14
e 9 15
e 9 17
e 9 27
e 9 37
e 9 39
e 9 41
e 9 42
e 9 46
e 9 48
e 9 54
e 9 59
e 9 64
e 9 69
e 9 70
e 9 72
e 9 73
e 9 74
e 9 77
e 9 79
e 9 87
e 10 12
e 10 16
e 10 17
e 10 27
e 10 39
e 10 43
e 10 44
e 10 45
e 10 46
e 10 47
e 10 49
e 10 54
e 10 57
e 10 62
e 10 64
e 10 65
e 10 67
e 10 69
e 10 70
e 10 72
e 10 74
e 10 83
e 10 93
e 10 94
e 10 96
e 10 98
e 10 100
e 11 13
e 11 15
e 11 26
e 11 38
e 11 40
e 11 41
e 11 42
e 11 56
e 11 70
e 11 71
e 11 72
e 11 73
e 11 75
e 11 78
e 11 80
e 11 81
e 11 82
e 11 85
e 11 86
e 11 89
e 11 97
e 12 16
e 12 17
e 12 18
e 12 23
e 12 38
e 12 43
e 12 44
e 12 45
e 12 46
e 12 47
e 12 49
e 12 50
e 12 53
e 12 57
e 12 69
e 12 70
e 12 72
e 12 76
e 12 83
e 12 84
e 12 93
e 12 94
e 12 96
e 12 98
e 13 15
e 13 23
e 13 24
e 13 29
e 13 33
e 13 35
e 13 38
e 13 40
e 13 52
e 13 61
e 13 63
e 13 68
e 13 71
e 13 73
e 13 75
e 13 76
e 13 78
e 13 80
e 13 84
e 13 88
e 13 90
e 13 91
e 13 97
e 13 99
e 13 102
e 14 19
e 14 20
e 14 21
e 14 22
e 14 25
e 14 26
e 14 28
e 14 30
e 14 37
e 14 39
e 14 41
e 14 42
e 14 48
e 14 51
e 14 55
e 14 58
e 14 59
e 14 60
e 14 74
e 14 77
e 14 79
e 14 81
e 14 82
e 14 85
e 14 87
e 14 92
e 14 95
e 15 38
e 15 40
e 15 41
e 15 42
e 15 56
e 15 70
e 15 71
e 15 72
e 15 73
e 15 75
e 15 78
e 15 80
e 15 81
e 15 82
e 15 85
e 15 86
e 15 89
e 15 97
e 16 18
e 16 23
e 16 38
e 16 40
e 16 43
e 16 44
e 16 45
e 16 47
e 16 50
e 16 53
e 16 57
e 16 69
e 16 70
e 16 76
e 16 83
e 16 84
e 16 88
e 16 90
e 16 91
e 16 94
e 16 96
e 16 98
e 17 27
e 17 39
e 17 43
e 17 44
e 17 46
e 17 47
e 17 48
e 17 49
e 17 54
e 17 62
e 17 64
e 17 65
e 17 66
e 17 69
e 17 70
e 17 72
e 17 74
e 17 77
e 17 93
e 18 23
e 18 38
e 18 40
e 18 43
e 18 44
e 18 45
e 18 47
e 18 50
e 18 53
e 18 69
e 18 76
e 18 78
e 18 83
e 18 84
e 18 88
e 18 90
e 18 91
e 18 94
e 18 96
e 19 20
e 19 21
e 19 22
e 19 25
e 19 28
e 19 30
e 19 34
e 19 37
e 19 39
e 19 48
e 19 51
e 19 55
e 19 58
e 19 59
e 19 60
e 19 77
e 19 79
e 19 81
e 19 87
e 19 92
e 19 95
e 20 21
e 20 22
e 20 25
e 20 26
e 20 30
e 20 31
e 20 34
e 20 37
e 20 51
e 20 55
e 20 56
e 20 58
e 20 60
e 20 79
e 20 81
e 20 82
e 20 85
e 20 89
e 20 92
e 20 95
e 20 101
e 21 22
e 21 25
e 21 26
e 21 31
e 21 32
e 21 34
e 21 37
e 21 51
e 21 55
e 21 56
e 21 60
e 21 79
e 21 81
e 21 82
e 21 85
e 21 86
e 21 89
e 21 92
e 21 101
e 22 25
e 22 26
e 22 30
e 22 31
e 22 34
e 22 37
e 22 51
e 22 55
e 22 58
e 22 60
e 22 79
e 22 81
e 22 82
e 22 85
e 22 87
e 22 92
e 22 95
e 22 101
e 23 38
e 23 40
e 23 43
e 23 45
e 23 47
e 23 50
e 23 53
e 23 69
e 23 76
e 23 78
e 23 83
e 23 84
e 23 88
e 23 90
e 23 91
e 23 94
e 23 96
e 24 29
e 24 33
e 24 35
e 24 38
e 24 40
e 24 52
e 24 61
e 24 63
e 24 68
e 24 71
e 24 75
e 24 76
e 24 78
e 24 88
e 24 90
e 24 91
e 24 97
e 24 99
e 24 102
e 25 26
e 25 30
e 25 31
e 25 34
e 25 37
e 25 51
e 25 55
e 25 58
e 25 60
e 25 79
e 25 81
e 25 85
e 25 92
e 25 95
e 25 101
e 26 31
e 26 32
e 26 34
e 26 37
e 26 56
e 26 81
e 26 82
e 26 85
e 26 86
e 26 89
e 26 92
e 26 101
e 27 28
e 27 37
e 27 39
e 27 46
e 27 48
e 27 49
e 27 54
e 27 59
e 27 64
e 27 65
e 27 66
e 27 74
e 27 77
e 27 79
e 27 87
e 28 30
e 28 37
e 28 39
e 28 48
e 28 51
e 28 55
e 28 58
e 28 59
e 28 66
e 28 74
e 28 77
e 28 79
e 28 87
e 28 95
e 29 35
e 29 38
e 29 40
e 29 52
e 29 61
e 29 63
e 29 68
e 29 71
e 29 73
e 29 75
e 29 78
e 29 80
e 29 97
e 29 99
e 30 37
e 30 48
e 30 51
e 30 55
e 30 58
e 30 59
e 30 60
e 30 79
e 30 87
e 30 95
e 31 32
e 31 34
e 31 56
e 31 60
e 31 81
e 31 85
e 31 92
e 31 101
e 32 36
e 32 56
e 32 80
e 32 81
e 32 82
e 32 85
e 32 86
e 32 89
e 32 97
e 32 101
e 33 35
e 33 52
e 33 61
e 33 63
e 33 68
e 33 88
e 33 90
e 33 91
e 33 99
e 33 102
e 34 60
e 34 81
e 34 85
e 34 92
e 34 101
e 35 52
e 35 61
e 35 63
e 35 68
e 35 99
e 35 102
e 36 56
e 36 97
e 37 39
e 37 41
e 37 42
e 37 48
e 37 51
e 37 55
e 37 58
e 37 59
e 37 60
e 37 72
e 37 74
e 37 77
e 37 79
e 37 81
e 37 82
e 37 85
e 37 87
e 37 92
e 37 95
e 38 40
e 38 45
e 38 50
e 38 52
e 38 53
e 38 69
e 38 70
e 38 71
e 38 72
e 38 73
e 38 75
e 38 76
e 38 78
e 38 80
e 38 83
e 38 84
e 38 88
e 38 90
e 38 91
e 39 41
e 39 42
e 39 46
e 39 48
e 39 49
e 39 51
e 39 54
e 39 58
e 39 59
e 39 64
e 39 65
e 39 66
e 39 70
e 39 72
e 39 74
e 39 77
e 39 79
e 39 87
e 39 95
e 40 52
e 40 61
e 40 63
e 40 71
e 40 72
e 40 73
e 40 75
e 40 76
e 40 78
e 40 80
e 40 84
e 40 88
e 40 90
e 40 91
e 40 99
e 41 42
e 41 69
e 41 70
e 41 71
e 41 72
e 41 73
e 41 74
e 41 77
e 41 79
e 41 80
e 41 81
e 41 82
e 41 85
e 41 86
e 41 87
e 41 89
e 42 69
e 42 70
e 42 71
e 42 72
e 42 73
e 42 74
e 42 77
e 42 79
e 42 80
e 42 81
e 42 82
e 42 85
e 42 86
e 42 87
e 42 89
e 43 44
e 43 45
e 43 46
e 43 47
e 43 49
e 43 50
e 43 53
e 43 54
e 43 57
e 43 62
e 43 64
e 43 65
e 43 67
e 43 69
e 43 70
e 43 83
e 43 93
e 43 94
e 43 96
e 43 98
e 43 100
e 44 45
e 44 46
e 44 47
e 44 49
e 44 50
e 44 53
e 44 54
e 44 57
e 44 62
e 44 64
e 44 65
e 44 67
e 44 69
e 44 70
e 44 83
e 44 93
e 44 94
e 44 96
e 44 98
e 44 100
e 45 47
e 45 50
e 45 53
e 45 57
e 45 67
e 45 69
e 45 70
e 45 76
e 45 83
e 45 84
e 45 88
e 45 90
e 45 94
e 45 96
e 45 98
e 46 47
e 46 48
e 46 49
e 46 54
e 46 64
e 46 65
e 46 66
e 46 69
e 46 70
e 46 72
e 46 74
e 46 77
e 46 87
e 46 93
e 47 49
e 47 50
e 47 53
e 47 57
e 47 62
e 47 67
e 47 69
e 47 70
e 47 83
e 47 93
e 47 94
e 47 96
e 47 98
e 47 100
e 48 51
e 48 54
e 48 55
e 48 58
e 48 59
e 48 64
e 48 66
e 48 74
e 48 77
e 48 79
e 48 87
e 48 95
e 49 54
e 49 57
e 49 62
e 49 64
e 49 65
e 49 66
e 49 67
e 49 69
e 49 70
e 49 74
e 49 93
e 49 98
e 49 100
e 50 53
e 50 57
e 50 69
e 50 76
e 50 83
e 50 84
e 50 88
e 50 90
e 50 91
e 50 94
e 50 96
e 50 98
e 51 55
e 51 58
e 51 59
e 51 60
e 51 77
e 51 79
e 51 81
e 51 87
e 51 92
e 51 95
e 52 61
e 52 63
e 52 68
e 52 71
e 52 75
e 52 76
e 52 78
e 52 84
e 52 88
e 52 90
e 52 91
e 52 99
e 52 102
e 53 57
e 53 69
e 53 76
e 53 83
e 53 84
e 53 88
e 53 90
e 53 94
e 53 96
e 53 98
e 54 62
e 54 64
e 54 65
e 54 66
e 54 69
e 54 70
e 54 74
e 54 77
e 54 93
e 55 58
e 55 59
e 55 60
e 55 77
e 55 79
e 55 87
e 55 92
e 55 95
e 56 73
e 56 80
e 56 81
e 56 82
e 56 85
e 56 86
e 56 89
e 56 92
e 56 97
e 56 101
e 57 62
e 57 67
e 57 69
e 57 83
e 57 93
e 57 94
e 57 96
e 57 98
e 57 100
e 58 59
e 58 60
e 58 77
e 58 79
e 58 87
e 58 95
e 59 66
e 59 74
e 59 77
e 59 79
e 59 87
e 59 95
e 60 79
e 60 92
e 60 95
e 60 101
e 61 63
e 61 68
e 61 71
e 61 75
e 61 78
e 61 80
e 61 97
e 61 99
e 61 102
e 62 64
e 62 65
e 62 67
e 62 83
e 62 93
e 62 94
e 62 96
e 62 98
e 62 100
e 63 68
e 63 75
e 63 78
e 63 88
e 63 90
e 63 91
e 63 99
e 63 102
e 64 65
e 64 66
e 64 74
e 64 93
e 65 66
e 65 69
e 65 74
e 65 93
e 65 100
e 66 74
e 66 77
e 66 79
e 66 87
e 67 83
e 67 93
e 67 94
e 67 96
e 67 98
e 67 100
e 68 75
e 68 91
e 68 99
e 68 102
e 69 70
e 69 72
e 69 74
e 69 76
e 69 83
e 69 84
e 69 93
e 69 94
e 70 71
e 70 72
e 70 73
e 70 74
e 70 76
e 70 77
e 70 83
e 70 84
e 71 72
e 71 73
e 71 75
e 71 76
e 71 78
e 71 80
e 71 82
e 71 84
e 71 86
e 71 88
e 71 89
e 71 90
e 71 91
e 71 97
e 71 99
e 72 73
e 72 74
e 72 75
e 72 76
e 72 77
e 72 78
e 72 80
e 72 84
e 72 86
e 73 75
e 73 76
e 73 78
e 73 80
e 73 82
e 73 84
e 73 85
e 73 86
e 73 89
e 73 97
e 74 77
e 74 79
e 74 87
e 75 76
e 75 78
e 75 80
e 75 84
e 75 86
e 75 88
e 75 90
e 75 91
e 75 97
e 75 99
e 76 78
e 76 83
e 76 84
e 76 88
e 76 90
e 76 91
e 77 79
e 77 87
e 77 95
e 78 80
e 78 84
e 78 88
e 78 90
e 78 91
e 78 99
e 79 81
e 79 87
e 79 92
e 79 95
e 80 81
e 80 82
e 80 85
e 80 86
e 80 89
e 80 97
e 81 82
e 81 85
e 81 86
e 81 89
e 81 92
e 81 101
e 82 85
e 82 86
e 82 89
e 82 92
e 82 97
e 83 84
e 83 88
e 83 93
e 83 94
e 83 96
e 83 98
e 84 88
e 84 90
e 84 91
e 85 86
e 85 89
e 85 92
e 85 101
e 86 89
e 86 97
e 87 95
e 88 90
e 88 91
e 88 102
e 89 92
e 89 97
e 90 91
e 90 102
e 91 102
e 92 95
e 92 101
e 93 94
e 93 96
e 93 98
e 93 100
e 94 96
e 94 98
e 94 100
e 96 98
e 96 100
e 97 99
e 98 100
e 99 102
